p cnf  7 15
c with miter
c 1,2,3 inputs
c 5, 6 outputs
c 7 miteroutput
4 -1 -2 0
-4 1 0
-4 2 0
5 -4 -3 0
-5 4 0
-5 3 0
6 -1 -2 -3 0
-6 1 0
-6 2 0
-6 3 0
-7 -5 -6 0
-7 5 6 0
7 -5 6 0
7 5 -6 0
7 0

